p edge 258 789
e 1 11
e 1 12
e 1 13
e 1 22
e 1 23
e 1 24
e 1 25
e 1 39
e 1 82
e 1 92
e 1 95
e 1 140
e 1 148
e 1 156
e 1 177
e 1 179
e 2 21
e 2 23
e 2 26
e 2 34
e 2 37
e 2 38
e 2 48
e 2 57
e 2 61
e 2 62
e 2 84
e 2 85
e 2 100
e 2 114
e 2 132
e 2 140
e 2 141
e 2 153
e 3 18
e 3 20
e 3 23
e 3 34
e 3 40
e 3 45
e 3 46
e 3 73
e 3 75
e 3 83
e 3 97
e 3 117
e 3 119
e 3 121
e 3 130
e 3 131
e 4 6
e 4 36
e 4 43
e 4 49
e 4 56
e 4 66
e 4 80
e 4 96
e 4 114
e 4 126
e 4 151
e 4 152
e 4 160
e 4 168
e 4 173
e 4 179
e 4 211
e 4 235
e 4 236
e 5 11
e 5 14
e 5 42
e 5 53
e 5 75
e 5 108
e 5 121
e 5 166
e 5 175
e 5 180
e 5 209
e 6 16
e 6 22
e 6 41
e 6 43
e 6 50
e 6 54
e 6 66
e 6 77
e 6 123
e 6 126
e 6 184
e 6 186
e 6 211
e 7 15
e 7 26
e 7 34
e 7 38
e 7 44
e 7 57
e 7 81
e 7 135
e 7 139
e 7 203
e 8 19
e 8 21
e 8 22
e 8 25
e 8 29
e 8 33
e 8 34
e 8 38
e 8 47
e 8 48
e 8 53
e 8 92
e 8 153
e 8 177
e 9 19
e 9 27
e 9 28
e 9 32
e 9 35
e 9 51
e 9 65
e 9 68
e 9 77
e 9 80
e 9 134
e 9 145
e 9 164
e 9 182
e 9 233
e 9 234
e 10 12
e 10 17
e 10 19
e 10 41
e 10 57
e 10 58
e 10 79
e 10 94
e 10 102
e 10 199
e 11 12
e 11 14
e 11 36
e 11 39
e 11 42
e 11 86
e 11 89
e 11 97
e 11 106
e 11 137
e 11 148
e 11 149
e 11 177
e 12 17
e 12 24
e 12 41
e 12 42
e 12 52
e 12 57
e 12 70
e 12 79
e 12 89
e 12 106
e 12 148
e 12 167
e 12 179
e 13 30
e 13 37
e 13 82
e 13 95
e 13 239
e 14 42
e 14 85
e 14 105
e 14 115
e 14 121
e 14 124
e 14 135
e 14 169
e 14 180
e 15 16
e 15 34
e 15 38
e 15 44
e 15 113
e 15 118
e 15 132
e 15 188
e 15 203
e 15 224
e 15 225
e 16 21
e 16 26
e 16 41
e 16 47
e 16 57
e 16 62
e 16 69
e 16 110
e 16 146
e 16 147
e 16 156
e 16 188
e 16 224
e 16 225
e 17 26
e 17 41
e 17 48
e 17 57
e 17 79
e 17 109
e 18 28
e 18 40
e 18 73
e 18 81
e 18 83
e 18 115
e 18 117
e 18 130
e 18 131
e 18 175
e 18 232
e 19 22
e 19 39
e 19 49
e 19 53
e 19 65
e 19 102
e 19 109
e 19 198
e 20 23
e 20 33
e 20 47
e 20 59
e 20 75
e 20 78
e 20 85
e 20 104
e 20 119
e 20 129
e 20 133
e 20 229
e 21 26
e 21 48
e 21 62
e 21 70
e 21 112
e 21 125
e 22 24
e 22 25
e 22 50
e 22 53
e 22 92
e 22 123
e 22 148
e 22 149
e 22 184
e 23 37
e 23 73
e 23 75
e 23 88
e 23 119
e 23 156
e 23 163
e 23 218
e 24 148
e 24 149
e 24 179
e 24 217
e 25 33
e 25 70
e 25 92
e 25 100
e 25 102
e 25 148
e 25 177
e 25 178
e 25 210
e 25 245
e 26 28
e 26 41
e 26 48
e 26 57
e 26 62
e 26 69
e 26 188
e 27 28
e 27 35
e 27 56
e 27 75
e 27 77
e 27 88
e 27 107
e 27 134
e 27 157
e 27 189
e 28 35
e 28 40
e 28 41
e 28 44
e 28 54
e 28 77
e 28 81
e 28 127
e 28 134
e 28 232
e 29 33
e 29 34
e 29 38
e 29 47
e 29 59
e 29 84
e 29 110
e 29 151
e 30 37
e 30 55
e 30 56
e 30 58
e 30 61
e 30 66
e 30 80
e 30 140
e 30 223
e 31 47
e 31 69
e 31 125
e 31 190
e 32 46
e 32 87
e 32 99
e 32 136
e 32 194
e 32 196
e 32 197
e 33 34
e 33 36
e 33 38
e 33 210
e 34 38
e 34 59
e 34 62
e 34 84
e 34 114
e 34 203
e 35 49
e 35 77
e 35 83
e 35 130
e 35 131
e 35 134
e 35 143
e 36 96
e 36 103
e 36 149
e 36 151
e 36 152
e 36 184
e 37 73
e 37 218
e 38 47
e 38 59
e 38 78
e 38 84
e 38 94
e 38 114
e 38 203
e 38 222
e 39 79
e 39 90
e 39 106
e 39 148
e 39 177
e 39 249
e 40 73
e 40 81
e 40 117
e 40 130
e 40 131
e 40 232
e 41 44
e 41 54
e 41 57
e 41 69
e 41 79
e 41 127
e 41 188
e 42 52
e 42 70
e 42 89
e 42 106
e 42 119
e 42 121
e 42 137
e 42 181
e 42 247
e 43 63
e 43 66
e 43 163
e 43 165
e 43 190
e 44 54
e 44 127
e 44 159
e 45 46
e 45 74
e 45 83
e 45 117
e 46 83
e 46 99
e 46 117
e 46 136
e 46 192
e 46 194
e 46 196
e 47 59
e 47 69
e 47 146
e 47 147
e 48 57
e 48 62
e 48 141
e 48 153
e 48 219
e 48 220
e 49 58
e 49 65
e 49 72
e 49 76
e 49 96
e 49 160
e 49 179
e 49 203
e 50 112
e 50 123
e 50 150
e 50 184
e 50 202
e 51 53
e 51 90
e 51 128
e 51 130
e 51 161
e 51 166
e 52 70
e 52 93
e 52 200
e 53 64
e 53 90
e 53 128
e 54 64
e 54 71
e 54 127
e 54 231
e 55 56
e 55 66
e 55 69
e 55 76
e 55 80
e 55 178
e 55 244
e 56 60
e 56 66
e 56 80
e 56 88
e 56 98
e 56 235
e 56 236
e 57 69
e 57 79
e 57 153
e 57 188
e 58 66
e 58 76
e 58 160
e 58 193
e 58 223
e 59 84
e 59 110
e 59 193
e 59 207
e 60 98
e 60 105
e 60 126
e 60 139
e 60 155
e 60 165
e 60 171
e 61 140
e 61 141
e 61 162
e 61 216
e 63 64
e 63 68
e 63 77
e 63 114
e 64 84
e 64 128
e 64 158
e 65 73
e 65 74
e 65 118
e 65 143
e 65 171
e 65 240
e 66 80
e 66 114
e 66 193
e 67 74
e 67 93
e 68 77
e 68 80
e 68 114
e 68 186
e 69 76
e 69 188
e 70 100
e 70 102
e 70 125
e 70 178
e 70 245
e 71 88
e 71 108
e 71 134
e 71 189
e 71 231
e 72 99
e 72 111
e 72 205
e 72 206
e 73 74
e 73 117
e 73 130
e 73 131
e 73 218
e 75 88
e 75 119
e 75 127
e 76 132
e 76 160
e 76 168
e 76 212
e 76 213
e 77 114
e 77 134
e 77 186
e 78 94
e 78 104
e 78 129
e 78 222
e 78 229
e 78 246
e 79 92
e 79 249
e 80 114
e 81 138
e 81 139
e 81 232
e 82 95
e 82 98
e 82 101
e 82 144
e 82 183
e 82 238
e 83 115
e 83 117
e 83 155
e 83 157
e 83 162
e 84 114
e 84 119
e 84 158
e 85 100
e 85 169
e 86 89
e 86 97
e 86 137
e 86 176
e 87 94
e 87 104
e 87 124
e 87 136
e 87 142
e 88 108
e 88 127
e 89 97
e 89 106
e 89 119
e 89 121
e 89 137
e 90 106
e 90 128
e 91 143
e 91 170
e 92 148
e 92 177
e 93 200
e 94 102
e 94 104
e 94 142
e 94 199
e 94 222
e 95 174
e 95 191
e 96 103
e 96 123
e 96 152
e 96 179
e 96 184
e 97 100
e 97 106
e 97 128
e 97 137
e 97 172
e 97 187
e 98 101
e 98 144
e 98 183
e 98 191
e 98 238
e 99 136
e 99 194
e 99 196
e 100 102
e 100 178
e 100 187
e 101 138
e 101 144
e 101 183
e 101 243
e 102 109
e 102 178
e 102 198
e 102 199
e 103 152
e 103 184
e 104 129
e 104 142
e 104 228
e 104 229
e 105 107
e 105 115
e 105 126
e 105 135
e 105 155
e 105 171
e 106 128
e 106 172
e 107 157
e 107 226
e 107 227
e 108 133
e 108 166
e 109 198
e 110 116
e 110 146
e 110 147
e 111 138
e 111 145
e 112 173
e 113 118
e 115 135
e 115 155
e 115 157
e 115 162
e 116 129
e 116 161
e 116 197
e 116 250
e 116 251
e 116 252
e 117 130
e 117 131
e 117 145
e 117 201
e 117 230
e 118 143
e 118 171
e 118 240
e 119 121
e 119 137
e 120 169
e 120 187
e 120 221
e 121 137
e 122 142
e 122 172
e 123 150
e 123 184
e 123 202
e 124 154
e 124 185
e 125 158
e 126 155
e 126 165
e 126 171
e 126 211
e 127 241
e 128 172
e 129 197
e 129 229
e 129 250
e 129 251
e 129 252
e 130 131
e 130 143
e 130 166
e 131 143
e 132 168
e 132 212
e 132 213
e 133 201
e 136 194
e 136 196
e 137 237
e 138 139
e 140 141
e 141 216
e 141 219
e 141 220
e 142 214
e 143 170
e 143 171
e 143 240
e 144 183
e 144 243
e 145 201
e 145 230
e 145 233
e 145 234
e 146 147
e 146 215
e 148 177
e 148 179
e 150 202
e 150 204
e 150 256
e 151 152
e 152 184
e 154 185
e 154 208
e 155 157
e 155 162
e 155 171
e 156 163
e 157 162
e 160 168
e 160 173
e 164 182
e 168 173
e 168 212
e 168 213
e 169 187
e 169 221
e 170 242
e 171 240
e 175 209
e 178 244
e 181 195
e 181 247
e 182 248
e 183 191
e 187 221
e 188 224
e 188 225
e 193 207
e 194 196
e 196 253
e 197 250
e 197 251
e 197 252
e 200 257
e 200 258
e 201 230
e 202 204
e 205 206
e 212 213
e 219 220
e 224 225
e 226 227
e 233 234
e 235 236
e 250 251
e 250 252
e 251 252
e 254 255
e 257 258
